0 0 0 0 0 1 1 0 1 0 1 
0 75 63 55 34 21 75 65 16 39 26 
75 0 56 40 42 76 28 34 27 32 55 
63 56 0 79 40 77 65 65 50 35 66 
55 40 79 0 52 73 64 73 67 27 28 
34 42 40 52 0 68 28 41 77 43 75 
21 76 77 73 68 0 69 32 22 68 68 
75 28 65 64 28 69 0 65 41 22 25 
65 34 65 73 41 32 65 0 62 28 57 
16 27 50 67 77 22 41 62 0 17 34 
39 32 35 27 43 68 22 28 17 0 48 
26 55 66 28 75 68 25 57 34 48 0 
2 50
1B 6P 8B 2B 7P 5B 3B 9P 10B 4B 11P = 331